nNurses = 108;
nHours = 35;
minHours = 10;
maxHours = 12;
maxConsec = 7;
maxPresence = 10;
demand = [21, 21, 19, 15, 13, 15, 19, 14, 18, 22, 23, 28, 28, 33, 35, 38, 36, 34, 29, 30, 33, 36, 35, 32, 31, 35, 36, 36, 32, 35, 31, 26, 24, 27, 27];
